Route #1: 13 32 48 62 61 46 39 37 9 43 24 40 19 47 44 2
Route #2: 6 30 21 55 28 25 4 42 10
Route #3: 57 54 23 58 56 38 63 5 7 29 22 53 59 18 36 51 33 41 52 15
Route #4: 16 14 8 31 35 3 60 50 49
Route #5: 20 27 26 17 11
Route #6: 1 12 34 45
Route #7: 
Route #8: 
Route #9: 
cost 2452.4062457784253
